
******************************************************************************
This program contains Ipopt, a library for large-scale nonlinear optimization.
 Ipopt is released as open source code under the Eclipse Public License (EPL).
         For more information visit http://projects.coin-or.org/Ipopt
******************************************************************************

This is Ipopt version 3.12.6, running with linear solver ma57.

Number of nonzeros in equality constraint Jacobian...:        0
Number of nonzeros in inequality constraint Jacobian.:        0
Number of nonzeros in Lagrangian Hessian.............:       10

Total number of variables............................:        4
                     variables with only lower bounds:        3
                variables with lower and upper bounds:        0
                     variables with only upper bounds:        0
Total number of equality constraints.................:        0
Total number of inequality constraints...............:        0
        inequality constraints with only lower bounds:        0
   inequality constraints with lower and upper bounds:        0
        inequality constraints with only upper bounds:        0

iter    objective    inf_pr   inf_du lg(mu)  ||d||  lg(rg) alpha_du alpha_pr  ls
   0  1.5441199e+04 0.00e+00 1.00e+02  -1.0 0.00e+00    -  0.00e+00 0.00e+00   0
   1  1.3991845e+04 0.00e+00 9.42e+01  -1.0 9.42e-01   2.0 9.30e-01 1.00e+00f  1
   2  1.0523188e+04 0.00e+00 7.72e+01  -1.0 2.36e+00   1.5 1.00e+00 1.00e+00f  1
   3  6.1165247e+03 0.00e+00 4.99e+01  -1.0 4.49e+00   1.0 1.00e+00 1.00e+00f  1
   4  5.4176048e+03 0.00e+00 4.71e+01  -1.0 7.46e+00   0.6 1.00e+00 1.38e-01f  2
   5  5.0300922e+03 0.00e+00 4.39e+01  -1.0 5.55e-01   1.9 1.00e+00 1.00e+00f  1
   6  4.1533839e+03 0.00e+00 3.66e+01  -1.0 1.39e+00   1.4 1.00e+00 1.00e+00f  1
   7  3.3459700e+03 0.00e+00 6.83e+01  -1.0 2.65e+00   0.9 1.00e+00 6.70e-01f  1
   8  2.9155345e+03 0.00e+00 2.20e+01  -1.0 9.43e-01   1.4 1.00e+00 1.00e+00f  1
   9  2.2853880e+03 0.00e+00 1.74e+00  -1.0 3.78e+00    -  1.00e+00 1.00e+00f  1
iter    objective    inf_pr   inf_du lg(mu)  ||d||  lg(rg) alpha_du alpha_pr  ls
  10  2.2854310e+03 0.00e+00 2.72e+00  -1.0 3.85e-01    -  1.00e+00 1.00e+00f  1
  11  2.2853888e+03 0.00e+00 6.57e-01  -1.0 3.50e-01    -  1.00e+00 1.00e+00f  1
  12  2.2853835e+03 0.00e+00 5.61e-01  -1.7 1.98e-01    -  1.00e+00 1.00e+00f  1
  13  2.2853904e+03 0.00e+00 1.36e+00  -1.7 6.24e-01    -  1.00e+00 5.00e-01f  2
  14  2.2853837e+03 0.00e+00 6.48e-01  -1.7 3.17e-01    -  1.00e+00 1.00e+00f  1
  15  2.2854314e+03 0.00e+00 3.95e+00  -1.7 6.55e-01    -  1.00e+00 1.00e+00f  1
  16  2.2853842e+03 0.00e+00 2.32e-02  -1.7 2.91e-01    -  1.00e+00 1.00e+00f  1
  17  2.2853832e+03 0.00e+00 1.52e-02  -3.8 2.93e-02    -  1.00e+00 1.00e+00f  1
  18  2.2853832e+03 0.00e+00 6.04e-02  -3.8 7.33e-01    -  1.00e+00 1.25e-01f  4
  19  2.2853833e+03 0.00e+00 9.12e-02  -3.8 1.26e-01    -  1.00e+00 1.00e+00f  1
iter    objective    inf_pr   inf_du lg(mu)  ||d||  lg(rg) alpha_du alpha_pr  ls
  20  2.2853832e+03 0.00e+00 4.20e-02  -3.8 8.93e-02    -  1.00e+00 1.00e+00f  1
  21  2.2853832e+03 0.00e+00 7.32e-02  -3.8 1.94e-01    -  1.00e+00 5.00e-01f  2
  22  2.2853832e+03 0.00e+00 7.59e-02  -3.8 1.20e-01    -  1.00e+00 1.00e+00f  1
  23  2.2853832e+03 0.00e+00 7.66e-02  -3.8 1.22e-01    -  1.00e+00 1.00e+00f  1
  24  2.2853832e+03 0.00e+00 8.17e-02  -3.8 1.28e-01    -  1.00e+00 1.00e+00f  1
  25  2.2853832e+03 0.00e+00 7.82e-02  -3.8 1.27e-01    -  1.00e+00 1.00e+00f  1
  26  2.2853832e+03 0.00e+00 9.29e-02  -3.8 1.40e-01    -  1.00e+00 1.00e+00f  1
  27  2.2853832e+03 0.00e+00 7.16e-02  -3.8 1.26e-01    -  1.00e+00 1.00e+00f  1
  28  2.2853833e+03 0.00e+00 1.31e-01  -3.8 1.70e-01    -  1.00e+00 1.00e+00f  1
  29  2.2853832e+03 0.00e+00 4.21e-02  -3.8 1.03e-01    -  1.00e+00 1.00e+00f  1
iter    objective    inf_pr   inf_du lg(mu)  ||d||  lg(rg) alpha_du alpha_pr  ls
  30  2.2853833e+03 0.00e+00 1.28e-01  -3.8 3.11e-01    -  1.00e+00 5.00e-01f  2
  31  2.2853832e+03 0.00e+00 5.21e-02  -3.8 1.16e-01    -  1.00e+00 1.00e+00f  1
  32  2.2853832e+03 0.00e+00 1.08e-01  -3.8 2.80e-01    -  1.00e+00 5.00e-01f  2
  33  2.2853832e+03 0.00e+00 8.47e-02  -3.8 1.48e-01    -  1.00e+00 1.00e+00f  1
  34  2.2853833e+03 0.00e+00 1.49e-01  -3.8 1.96e-01    -  1.00e+00 1.00e+00f  1
  35  2.2853832e+03 0.00e+00 5.20e-02  -3.8 1.23e-01    -  1.00e+00 1.00e+00f  1
  36  2.2853832e+03 0.00e+00 1.38e-01  -3.8 3.44e-01    -  1.00e+00 5.00e-01f  2
  37  2.2853832e+03 0.00e+00 7.14e-02  -3.8 1.45e-01    -  1.00e+00 1.00e+00f  1
  38  2.2853833e+03 0.00e+00 2.86e-01  -3.8 2.82e-01    -  1.00e+00 1.00e+00f  1
  39  2.2853832e+03 0.00e+00 1.78e-02  -3.8 8.52e-02    -  1.00e+00 1.00e+00f  1
iter    objective    inf_pr   inf_du lg(mu)  ||d||  lg(rg) alpha_du alpha_pr  ls
  40  2.2853833e+03 0.00e+00 2.78e-01  -3.8 1.10e+00    -  1.00e+00 2.50e-01f  3
  41  2.2853832e+03 0.00e+00 2.30e-02  -3.8 9.67e-02    -  1.00e+00 1.00e+00f  1
  42  2.2853833e+03 0.00e+00 2.13e-01  -3.8 9.78e-01    -  1.00e+00 2.50e-01f  3
  43  2.2853832e+03 0.00e+00 4.80e-02  -3.8 1.34e-01    -  1.00e+00 1.00e+00f  1
  44  2.2853833e+03 0.00e+00 2.65e-01  -3.8 5.58e-01    -  1.00e+00 5.00e-01f  2
  45  2.2853832e+03 0.00e+00 3.53e-02  -3.8 1.21e-01    -  1.00e+00 1.00e+00f  1
  46  2.2853832e+03 0.00e+00 1.48e-01  -3.8 8.14e-01    -  1.00e+00 2.50e-01f  3
  47  2.2853832e+03 0.00e+00 1.37e-01  -3.8 2.26e-01    -  1.00e+00 1.00e+00f  1
  48  2.2853832e+03 0.00e+00 1.71e-01  -3.8 2.54e-01    -  1.00e+00 1.00e+00f  1
  49  2.2853832e+03 0.00e+00 1.20e-01  -3.8 2.19e-01    -  1.00e+00 1.00e+00f  1
iter    objective    inf_pr   inf_du lg(mu)  ||d||  lg(rg) alpha_du alpha_pr  ls
  50  2.2853833e+03 0.00e+00 2.65e-01  -3.8 3.21e-01    -  1.00e+00 1.00e+00f  1
  51  2.2853832e+03 0.00e+00 5.80e-02  -3.8 1.64e-01    -  1.00e+00 1.00e+00f  1
  52  2.2853833e+03 0.00e+00 3.40e-01  -3.8 7.05e-01    -  1.00e+00 5.00e-01f  2
  53  2.2853832e+03 0.00e+00 4.02e-02  -3.8 1.46e-01    -  1.00e+00 1.00e+00f  1
  54  2.2853832e+03 0.00e+00 2.05e-01  -3.8 1.08e+00    -  1.00e+00 2.50e-01f  3
  55  2.2853832e+03 0.00e+00 1.37e-01  -3.8 2.53e-01    -  1.00e+00 1.00e+00f  1
  56  2.2853833e+03 0.00e+00 3.28e-01  -3.8 3.86e-01    -  1.00e+00 1.00e+00f  1
  57  2.2853832e+03 0.00e+00 6.05e-02  -3.8 1.83e-01    -  1.00e+00 1.00e+00f  1
  58  2.2853833e+03 0.00e+00 4.83e-01  -3.8 9.17e-01    -  1.00e+00 5.00e-01f  2
  59  2.2853832e+03 0.00e+00 3.06e-02  -3.8 1.45e-01    -  1.00e+00 1.00e+00f  1
iter    objective    inf_pr   inf_du lg(mu)  ||d||  lg(rg) alpha_du alpha_pr  ls
  60  2.2853833e+03 0.00e+00 4.60e-01  -3.8 1.85e+00    -  1.00e+00 2.50e-01f  3
  61  2.2853832e+03 0.00e+00 4.12e-02  -3.8 1.68e-01    -  1.00e+00 1.00e+00f  1
  62  2.2853833e+03 0.00e+00 3.33e-01  -3.8 1.58e+00    -  1.00e+00 2.50e-01f  3
  63  2.2853832e+03 0.00e+00 9.68e-02  -3.8 2.44e-01    -  1.00e+00 1.00e+00f  1
  64  2.2853833e+03 0.00e+00 3.42e-01  -3.8 8.06e-01    -  1.00e+00 5.00e-01f  2
  65  2.2853832e+03 0.00e+00 1.06e-01  -3.8 2.61e-01    -  1.00e+00 1.00e+00f  1
  66  2.2853833e+03 0.00e+00 3.40e-01  -3.8 8.17e-01    -  1.00e+00 5.00e-01f  2
  67  2.2853832e+03 0.00e+00 1.25e-01  -3.8 2.89e-01    -  1.00e+00 1.00e+00f  1
  68  2.2853832e+03 0.00e+00 3.03e-01  -3.8 7.70e-01    -  1.00e+00 5.00e-01f  2
  69  2.2853832e+03 0.00e+00 1.84e-01  -3.8 3.53e-01    -  1.00e+00 1.00e+00f  1
iter    objective    inf_pr   inf_du lg(mu)  ||d||  lg(rg) alpha_du alpha_pr  ls
  70  2.2853833e+03 0.00e+00 5.41e-01  -3.8 5.93e-01    -  1.00e+00 1.00e+00f  1
  71  2.2853832e+03 0.00e+00 6.49e-02  -3.8 2.34e-01    -  1.00e+00 1.00e+00f  1
  72  2.2853832e+03 0.00e+00 3.23e-01  -3.8 1.72e+00    -  1.00e+00 2.50e-01f  3
  73  2.2853832e+03 0.00e+00 2.24e-01  -3.8 4.09e-01    -  1.00e+00 1.00e+00f  1
  74  2.2853833e+03 0.00e+00 4.99e-01  -3.8 6.03e-01    -  1.00e+00 1.00e+00f  1
  75  2.2853832e+03 0.00e+00 1.07e-01  -3.8 3.05e-01    -  1.00e+00 1.00e+00f  1
  76  2.2853833e+03 0.00e+00 6.49e-01  -3.8 1.33e+00    -  1.00e+00 5.00e-01f  2
  77  2.2853832e+03 0.00e+00 7.24e-02  -3.8 2.68e-01    -  1.00e+00 1.00e+00f  1
  78  2.2853832e+03 0.00e+00 4.05e-01  -3.8 2.10e+00    -  1.00e+00 2.50e-01f  3
  79  2.2853832e+03 0.00e+00 2.29e-01  -3.8 4.50e-01    -  1.00e+00 1.00e+00f  1
iter    objective    inf_pr   inf_du lg(mu)  ||d||  lg(rg) alpha_du alpha_pr  ls
  80  2.2853833e+03 0.00e+00 7.67e-01  -3.8 8.04e-01    -  1.00e+00 1.00e+00f  1
  81  2.2853832e+03 0.00e+00 7.00e-02  -3.8 2.83e-01    -  1.00e+00 1.00e+00f  1
  82  2.2853833e+03 0.00e+00 5.53e-01  -3.8 2.64e+00    -  1.00e+00 2.50e-01f  3
  83  2.2853832e+03 0.00e+00 1.68e-01  -3.8 4.16e-01    -  1.00e+00 1.00e+00f  1
  84  2.2853833e+03 0.00e+00 5.52e-01  -3.8 1.32e+00    -  1.00e+00 5.00e-01f  2
  85  2.2853832e+03 0.00e+00 1.94e-01  -3.8 4.57e-01    -  1.00e+00 1.00e+00f  1
  86  2.2853832e+03 0.00e+00 5.06e-01  -3.8 1.27e+00    -  1.00e+00 5.00e-01f  2
  87  2.2853832e+03 0.00e+00 2.70e-01  -3.8 5.44e-01    -  1.00e+00 1.00e+00f  1
  88  2.2853833e+03 0.00e+00 1.02e+00  -3.8 1.03e+00    -  1.00e+00 1.00e+00f  1
  89  2.2853832e+03 0.00e+00 7.18e-02  -3.8 3.26e-01    -  1.00e+00 1.00e+00f  1
iter    objective    inf_pr   inf_du lg(mu)  ||d||  lg(rg) alpha_du alpha_pr  ls
  90  2.2853833e+03 0.00e+00 9.01e-01  -3.8 3.80e+00    -  1.00e+00 2.50e-01f  3
  91  2.2853832e+03 0.00e+00 1.14e-01  -3.8 4.01e-01    -  1.00e+00 1.00e+00f  1
  92  2.2853832e+03 0.00e+00 5.15e-01  -3.8 2.80e+00    -  1.00e+00 2.50e-01f  3
  93  2.2853832e+03 0.00e+00 4.25e-01  -3.8 7.28e-01    -  1.00e+00 1.00e+00f  1
  94  2.2853833e+03 0.00e+00 6.69e-01  -3.8 9.13e-01    -  1.00e+00 1.00e+00f  1
  95  2.2853832e+03 0.00e+00 2.92e-01  -3.8 6.34e-01    -  1.00e+00 1.00e+00f  1
  96  2.2853832e+03 0.00e+00 5.50e-01  -3.8 1.44e+00    -  1.00e+00 5.00e-01f  2
  97  2.2853832e+03 0.00e+00 5.05e-01  -3.8 8.34e-01    -  1.00e+00 1.00e+00f  1
  98  2.2853832e+03 0.00e+00 6.49e-01  -3.8 9.52e-01    -  1.00e+00 1.00e+00f  1
  99  2.2853832e+03 0.00e+00 4.27e-01  -3.8 7.97e-01    -  1.00e+00 1.00e+00f  1
iter    objective    inf_pr   inf_du lg(mu)  ||d||  lg(rg) alpha_du alpha_pr  ls
 100  2.2853833e+03 0.00e+00 1.07e+00  -3.8 1.24e+00    -  1.00e+00 1.00e+00f  1
 101  2.2853832e+03 0.00e+00 1.80e-01  -3.8 5.65e-01    -  1.00e+00 1.00e+00f  1
 102  2.2853832e+03 0.00e+00 5.30e-01  -3.8 3.07e+00    -  1.00e+00 2.50e-01f  3
 103  2.2853833e+03 0.00e+00 8.81e-01  -3.8 1.18e+00    -  1.00e+00 1.00e+00f  1
 104  2.2853832e+03 0.00e+00 3.40e-01  -3.8 7.74e-01    -  1.00e+00 1.00e+00f  1
 105  2.2853832e+03 0.00e+00 7.68e-01  -3.8 1.97e+00    -  1.00e+00 5.00e-01f  2
 106  2.2853832e+03 0.00e+00 5.24e-01  -3.8 9.64e-01    -  1.00e+00 1.00e+00f  1
 107  2.2853833e+03 0.00e+00 1.22e+00  -3.8 1.45e+00    -  1.00e+00 1.00e+00f  1
 108  2.2853832e+03 0.00e+00 2.40e-01  -3.8 7.06e-01    -  1.00e+00 1.00e+00f  1
 109  2.2853833e+03 0.00e+00 1.70e+00  -3.8 3.34e+00    -  1.00e+00 5.00e-01f  2
iter    objective    inf_pr   inf_du lg(mu)  ||d||  lg(rg) alpha_du alpha_pr  ls
 110  2.2853832e+03 0.00e+00 1.37e-01  -3.8 5.85e-01    -  1.00e+00 1.00e+00f  1
 111  2.2853833e+03 0.00e+00 1.34e+00  -3.8 6.08e+00    -  1.00e+00 2.50e-01f  3
 112  2.2853832e+03 0.00e+00 2.73e-01  -3.8 7.93e-01    -  1.00e+00 1.00e+00f  1
 113  2.2853833e+03 0.00e+00 1.81e+00  -3.8 3.62e+00    -  1.00e+00 5.00e-01f  2
 114  2.2853832e+03 0.00e+00 1.69e-01  -3.8 6.75e-01    -  1.00e+00 1.00e+00f  1
 115  2.2853833e+03 0.00e+00 1.27e+00  -3.8 6.17e+00    -  1.00e+00 2.50e-01f  3
 116  2.2853832e+03 0.00e+00 4.19e-01  -3.8 1.01e+00    -  1.00e+00 1.00e+00f  1
 117  2.2853833e+03 0.00e+00 1.21e+00  -3.8 2.98e+00    -  1.00e+00 5.00e-01f  2
 118  2.2853832e+03 0.00e+00 5.38e-01  -3.8 1.16e+00    -  1.00e+00 1.00e+00f  1
 119  2.2853832e+03 0.00e+00 9.83e-01  -3.8 2.59e+00    -  1.00e+00 5.00e-01f  2
iter    objective    inf_pr   inf_du lg(mu)  ||d||  lg(rg) alpha_du alpha_pr  ls
 120  2.2853832e+03 0.00e+00 9.47e-01  -3.8 1.54e+00    -  1.00e+00 1.00e+00f  1
 121  2.2853832e+03 0.00e+00 1.11e+00  -3.8 1.68e+00    -  1.00e+00 1.00e+00f  1
 122  2.2853832e+03 0.00e+00 8.83e-01  -3.8 1.54e+00    -  1.00e+00 1.00e+00f  1
 123  2.2853833e+03 0.00e+00 1.50e+00  -3.8 2.00e+00    -  1.00e+00 1.00e+00f  1
 124  2.2853832e+03 0.00e+00 5.59e-01  -3.8 1.29e+00    -  1.00e+00 1.00e+00f  1
 125  2.2853832e+03 0.00e+00 1.34e+00  -3.8 3.41e+00    -  1.00e+00 5.00e-01f  2
 126  2.2853832e+03 0.00e+00 8.25e-01  -3.8 1.58e+00    -  1.00e+00 1.00e+00f  1
 127  2.2853833e+03 0.00e+00 2.35e+00  -3.8 2.61e+00    -  1.00e+00 1.00e+00f  1
 128  2.2853832e+03 0.00e+00 3.03e-01  -3.8 1.06e+00    -  1.00e+00 1.00e+00f  1
 129  2.2853832e+03 0.00e+00 1.34e+00  -3.8 7.32e+00    -  1.00e+00 2.50e-01f  3
iter    objective    inf_pr   inf_du lg(mu)  ||d||  lg(rg) alpha_du alpha_pr  ls
 130  2.2853832e+03 0.00e+00 1.14e+00  -3.8 1.93e+00    -  1.00e+00 1.00e+00f  1
 131  2.2853832e+03 0.00e+00 1.70e+00  -3.8 2.37e+00    -  1.00e+00 1.00e+00f  1
 132  2.2853832e+03 0.00e+00 8.26e-01  -3.8 1.72e+00    -  1.00e+00 1.00e+00f  1
 133  2.2853833e+03 0.00e+00 3.78e+00  -3.8 3.56e+00    -  1.00e+00 1.00e+00f  1
 134  2.2853832e+03 0.00e+00 1.74e-01  -3.8 9.62e-01    -  1.00e+00 1.00e+00f  1
 135  2.2853832e+03 0.00e+00 1.27e+00  -3.8 1.58e+01    -  1.00e+00 1.25e-01f  4
 136  2.2853833e+03 0.00e+00 2.10e+00  -3.8 2.81e+00    -  1.00e+00 1.00e+00f  1
 137  2.2853832e+03 0.00e+00 8.01e-01  -3.8 1.83e+00    -  1.00e+00 1.00e+00f  1
 138  2.2853832e+03 0.00e+00 1.85e+00  -3.8 4.74e+00    -  1.00e+00 5.00e-01f  2
 139  2.2853832e+03 0.00e+00 1.21e+00  -3.8 2.27e+00    -  1.00e+00 1.00e+00f  1
iter    objective    inf_pr   inf_du lg(mu)  ||d||  lg(rg) alpha_du alpha_pr  ls
 140  2.2853833e+03 0.00e+00 3.05e+00  -3.8 3.54e+00    -  1.00e+00 1.00e+00f  1
 141  2.2853832e+03 0.00e+00 5.11e-01  -3.8 1.61e+00    -  1.00e+00 1.00e+00f  1
 142  2.2853832e+03 0.00e+00 1.51e+00  -3.8 8.78e+00    -  1.00e+00 2.50e-01f  3
 143  2.2853833e+03 0.00e+00 2.48e+00  -3.8 3.34e+00    -  1.00e+00 1.00e+00f  1
 144  2.2853832e+03 0.00e+00 9.85e-01  -3.8 2.22e+00    -  1.00e+00 1.00e+00f  1
 145  2.2853832e+03 0.00e+00 2.14e+00  -3.8 5.53e+00    -  1.00e+00 5.00e-01f  2
 146  2.2853832e+03 0.00e+00 1.56e+00  -3.8 2.80e+00    -  1.00e+00 1.00e+00f  1
 147  2.2853833e+03 0.00e+00 3.17e+00  -3.8 3.96e+00    -  1.00e+00 1.00e+00f  1
 148  2.2853832e+03 0.00e+00 8.21e-01  -3.8 2.18e+00    -  1.00e+00 1.00e+00f  1
 149  2.2853833e+03 0.00e+00 3.56e+00  -3.8 8.01e+00    -  1.00e+00 5.00e-01f  2
iter    objective    inf_pr   inf_du lg(mu)  ||d||  lg(rg) alpha_du alpha_pr  ls
 150  2.2853832e+03 0.00e+00 7.53e-01  -3.8 2.16e+00    -  1.00e+00 1.00e+00f  1
 151  2.2853833e+03 0.00e+00 4.68e+00  -3.8 9.56e+00    -  1.00e+00 5.00e-01f  2
 152  2.2853832e+03 0.00e+00 4.93e-01  -3.8 1.88e+00    -  1.00e+00 1.00e+00f  1
 153  2.2853832e+03 0.00e+00 3.03e+00  -3.8 1.54e+01    -  1.00e+00 2.50e-01f  3
 154  2.2853832e+03 0.00e+00 1.45e+00  -3.8 3.05e+00    -  1.00e+00 1.00e+00f  1
 155  2.2853832e+03 0.00e+00 2.37e+00  -3.8 6.32e+00    -  1.00e+00 5.00e-01f  2
 156  2.2853832e+03 0.00e+00 2.72e+00  -3.8 4.16e+00    -  1.00e+00 1.00e+00f  1
 157  2.2853832e+03 0.00e+00 2.24e+00  -3.8 3.86e+00    -  1.00e+00 1.00e+00f  1
 158  2.2853833e+03 0.00e+00 3.58e+00  -3.8 4.88e+00    -  1.00e+00 1.00e+00f  1
 159  2.2853832e+03 0.00e+00 1.52e+00  -3.8 3.34e+00    -  1.00e+00 1.00e+00f  1
iter    objective    inf_pr   inf_du lg(mu)  ||d||  lg(rg) alpha_du alpha_pr  ls
 160  2.2853832e+03 0.00e+00 2.97e+00  -3.8 7.81e+00    -  1.00e+00 5.00e-01f  2
 161  2.2853832e+03 0.00e+00 2.56e+00  -3.8 4.35e+00    -  1.00e+00 1.00e+00f  1
 162  2.2853832e+03 0.00e+00 3.74e+00  -3.8 5.26e+00    -  1.00e+00 1.00e+00f  1
 163  2.2853832e+03 0.00e+00 1.90e+00  -3.8 3.92e+00    -  1.00e+00 1.00e+00f  1
 164  2.2853833e+03 0.00e+00 7.92e+00  -3.8 7.73e+00    -  1.00e+00 1.00e+00f  1
 165  2.2853832e+03 0.00e+00 4.52e-01  -3.8 2.26e+00    -  1.00e+00 1.00e+00f  1
 166  2.2853833e+03 0.00e+00 8.22e+00  -3.8 3.14e+01    -  1.00e+00 2.50e-01f  3
 167  2.2853832e+03 0.00e+00 5.02e-01  -3.8 2.43e+00    -  1.00e+00 1.00e+00f  1
 168  2.2853833e+03 0.00e+00 7.98e+00  -3.8 3.17e+01    -  1.00e+00 2.50e-01f  3
 169  2.2853832e+03 0.00e+00 6.40e-01  -3.8 2.74e+00    -  1.00e+00 1.00e+00f  1
iter    objective    inf_pr   inf_du lg(mu)  ||d||  lg(rg) alpha_du alpha_pr  ls
 170  2.2853833e+03 0.00e+00 6.25e+00  -3.8 2.84e+01    -  1.00e+00 2.50e-01f  3
 171  2.2853832e+03 0.00e+00 1.28e+00  -3.8 3.72e+00    -  1.00e+00 1.00e+00f  1
 172  2.2853833e+03 0.00e+00 8.32e+00  -3.8 1.69e+01    -  1.00e+00 5.00e-01f  2
 173  2.2853832e+03 0.00e+00 8.06e-01  -3.8 3.19e+00    -  1.00e+00 1.00e+00f  1
 174  2.2853833e+03 0.00e+00 5.70e+00  -3.8 2.82e+01    -  1.00e+00 2.50e-01f  3
 175  2.2853832e+03 0.00e+00 2.12e+00  -3.8 4.90e+00    -  1.00e+00 1.00e+00f  1
 176  2.2853832e+03 0.00e+00 5.02e+00  -3.8 1.29e+01    -  1.00e+00 5.00e-01f  2
 177  2.2853832e+03 0.00e+00 3.15e+00  -3.8 6.01e+00    -  1.00e+00 1.00e+00f  1
 178  2.2853833e+03 0.00e+00 8.62e+00  -3.8 9.76e+00    -  1.00e+00 1.00e+00f  1
 179  2.2853832e+03 0.00e+00 1.21e+00  -3.8 4.11e+00    -  1.00e+00 1.00e+00f  1
iter    objective    inf_pr   inf_du lg(mu)  ||d||  lg(rg) alpha_du alpha_pr  ls
 180  2.2853832e+03 0.00e+00 4.68e+00  -3.8 2.63e+01    -  1.00e+00 2.50e-01f  3
 181  2.2853832e+03 0.00e+00 4.99e+00  -3.8 7.86e+00    -  1.00e+00 1.00e+00f  1
 182  2.2853832e+03 0.00e+00 4.69e+00  -3.8 7.75e+00    -  1.00e+00 1.00e+00f  1
 183  2.2853832e+03 0.00e+00 5.77e+00  -3.8 8.66e+00    -  1.00e+00 1.00e+00f  1
 184  2.2853832e+03 0.00e+00 4.14e+00  -3.8 7.54e+00    -  1.00e+00 1.00e+00f  1
 185  2.2853833e+03 0.00e+00 8.73e+00  -3.8 1.08e+01    -  1.00e+00 1.00e+00f  1
 186  2.2853832e+03 0.00e+00 2.10e+00  -3.8 5.75e+00    -  1.00e+00 1.00e+00f  1
 187  2.2853833e+03 0.00e+00 1.04e+01  -3.8 2.27e+01    -  1.00e+00 5.00e-01f  2
 188  2.2853832e+03 0.00e+00 1.71e+00  -3.8 5.44e+00    -  1.00e+00 1.00e+00f  1
 189  2.2853832e+03 0.00e+00 5.16e+00  -3.8 3.01e+01    -  1.00e+00 2.50e-01f  3
iter    objective    inf_pr   inf_du lg(mu)  ||d||  lg(rg) alpha_du alpha_pr  ls
 190  2.2853833e+03 0.00e+00 8.23e+00  -3.8 1.13e+01    -  1.00e+00 1.00e+00f  1
 191  2.2853832e+03 0.00e+00 3.45e+00  -3.8 7.67e+00    -  1.00e+00 1.00e+00f  1
 192  2.2853832e+03 0.00e+00 6.87e+00  -3.8 1.81e+01    -  1.00e+00 5.00e-01f  2
 193  2.2853832e+03 0.00e+00 5.76e+00  -3.8 9.93e+00    -  1.00e+00 1.00e+00f  1
 194  2.2853832e+03 0.00e+00 8.86e+00  -3.8 1.23e+01    -  1.00e+00 1.00e+00f  1
 195  2.2853832e+03 0.00e+00 4.04e+00  -3.8 8.71e+00    -  1.00e+00 1.00e+00f  1
 196  2.2853832e+03 0.00e+00 7.13e+00  -3.8 1.91e+01    -  1.00e+00 5.00e-01f  2
 197  2.2853832e+03 0.00e+00 7.24e+00  -3.8 1.17e+01    -  1.00e+00 1.00e+00f  1
 198  2.2853832e+03 0.00e+00 7.60e+00  -3.8 1.21e+01    -  1.00e+00 1.00e+00f  1
 199  2.2853832e+03 0.00e+00 7.48e+00  -3.8 1.22e+01    -  1.00e+00 1.00e+00f  1
iter    objective    inf_pr   inf_du lg(mu)  ||d||  lg(rg) alpha_du alpha_pr  ls
 200  2.2853832e+03 0.00e+00 8.37e+00  -3.8 1.31e+01    -  1.00e+00 1.00e+00f  1
 201  2.2853832e+03 0.00e+00 7.25e+00  -3.8 1.24e+01    -  1.00e+00 1.00e+00f  1
 202  2.2853832e+03 0.00e+00 1.05e+01  -3.8 1.49e+01    -  1.00e+00 1.00e+00f  1
 203  2.2853832e+03 0.00e+00 5.42e+00  -3.8 1.12e+01    -  1.00e+00 1.00e+00f  1
 204  2.2853833e+03 0.00e+00 2.19e+01  -3.8 2.18e+01    -  1.00e+00 1.00e+00f  1
 205  2.2853832e+03 0.00e+00 1.33e+00  -3.8 6.52e+00    -  1.00e+00 1.00e+00f  1
 206  2.2853833e+03 0.00e+00 2.13e+01  -3.8 8.53e+01    -  1.00e+00 2.50e-01f  3
 207  2.2853832e+03 0.00e+00 1.70e+00  -3.8 7.36e+00    -  1.00e+00 1.00e+00f  1
 208  2.2853833e+03 0.00e+00 1.66e+01  -3.8 7.65e+01    -  1.00e+00 2.50e-01f  3
 209  2.2853832e+03 0.00e+00 3.40e+00  -3.8 9.99e+00    -  1.00e+00 1.00e+00f  1
iter    objective    inf_pr   inf_du lg(mu)  ||d||  lg(rg) alpha_du alpha_pr  ls
 210  2.2853833e+03 0.00e+00 2.21e+01  -3.8 4.53e+01    -  1.00e+00 5.00e-01f  2
 211  2.2853832e+03 0.00e+00 2.13e+00  -3.8 8.54e+00    -  1.00e+00 1.00e+00f  1
 212  2.2853833e+03 0.00e+00 1.51e+01  -3.8 7.56e+01    -  1.00e+00 2.50e-01f  3
 213  2.2853832e+03 0.00e+00 5.61e+00  -3.8 1.31e+01    -  1.00e+00 1.00e+00f  1
 214  2.2853832e+03 0.00e+00 1.33e+01  -3.8 3.45e+01    -  1.00e+00 5.00e-01f  2
 215  2.2853832e+03 0.00e+00 8.32e+00  -3.8 1.61e+01    -  1.00e+00 1.00e+00f  1
 216  2.2853833e+03 0.00e+00 2.28e+01  -3.8 2.61e+01    -  1.00e+00 1.00e+00f  1
 217  2.2853832e+03 0.00e+00 3.19e+00  -3.8 1.10e+01    -  1.00e+00 1.00e+00f  1
 218  2.2853832e+03 0.00e+00 1.23e+01  -3.8 7.00e+01    -  1.00e+00 2.50e-01f  3
 219  2.2853832e+03 0.00e+00 1.32e+01  -3.8 2.10e+01    -  1.00e+00 1.00e+00f  1
iter    objective    inf_pr   inf_du lg(mu)  ||d||  lg(rg) alpha_du alpha_pr  ls
 220  2.2853832e+03 0.00e+00 1.21e+01  -3.8 2.05e+01    -  1.00e+00 1.00e+00f  1
 221  2.2853832e+03 0.00e+00 1.56e+01  -3.8 2.34e+01    -  1.00e+00 1.00e+00f  1
 222  2.2853832e+03 0.00e+00 1.02e+01  -3.8 1.95e+01    -  1.00e+00 1.00e+00f  1
 223  2.2853833e+03 0.00e+00 2.56e+01  -3.8 3.04e+01    -  1.00e+00 1.00e+00f  1
 224  2.2853832e+03 0.00e+00 4.33e+00  -3.8 1.38e+01    -  1.00e+00 1.00e+00f  1
 225  2.2853832e+03 0.00e+00 1.25e+01  -3.8 7.46e+01    -  1.00e+00 2.50e-01f  3
 226  2.2853833e+03 0.00e+00 2.13e+01  -3.8 2.90e+01    -  1.00e+00 1.00e+00f  1
 227  2.2853832e+03 0.00e+00 7.81e+00  -3.8 1.85e+01    -  1.00e+00 1.00e+00f  1
 228  2.2853832e+03 0.00e+00 1.90e+01  -3.8 4.96e+01    -  1.00e+00 5.00e-01f  2
 229  2.2853832e+03 0.00e+00 1.14e+01  -3.8 2.25e+01    -  1.00e+00 1.00e+00f  1
iter    objective    inf_pr   inf_du lg(mu)  ||d||  lg(rg) alpha_du alpha_pr  ls
 230  2.2853833e+03 0.00e+00 3.40e+01  -3.8 3.81e+01    -  1.00e+00 1.00e+00f  1
 231  2.2853832e+03 0.00e+00 3.94e+00  -3.8 1.48e+01    -  1.00e+00 1.00e+00f  1
 232  2.2853832e+03 0.00e+00 2.04e+01  -3.8 1.11e+02    -  1.00e+00 2.50e-01f  3
 233  2.2853832e+03 0.00e+00 1.33e+01  -3.8 2.56e+01    -  1.00e+00 1.00e+00f  1
 234  2.2853833e+03 0.00e+00 3.31e+01  -3.8 3.97e+01    -  1.00e+00 1.00e+00f  1
 235  2.2853832e+03 0.00e+00 5.65e+00  -3.8 1.81e+01    -  1.00e+00 1.00e+00f  1
 236  2.2853832e+03 0.00e+00 1.61e+01  -3.8 9.68e+01    -  1.00e+00 2.50e-01f  3
 237  2.2853833e+03 0.00e+00 2.81e+01  -3.8 3.82e+01    -  1.00e+00 1.00e+00f  1
 238  2.2853832e+03 0.00e+00 9.73e+00  -3.8 2.38e+01    -  1.00e+00 1.00e+00f  1
 239  2.2853832e+03 0.00e+00 2.58e+01  -3.8 6.69e+01    -  1.00e+00 5.00e-01f  2
iter    objective    inf_pr   inf_du lg(mu)  ||d||  lg(rg) alpha_du alpha_pr  ls
 240  2.2853832e+03 0.00e+00 1.33e+01  -3.8 2.81e+01    -  1.00e+00 1.00e+00f  1
 241  2.2853833e+03 0.00e+00 5.29e+01  -3.8 5.44e+01    -  1.00e+00 1.00e+00f  1
 242  2.2853832e+03 0.00e+00 3.34e+00  -3.8 1.64e+01    -  1.00e+00 1.00e+00f  1
 243  2.2853833e+03 0.00e+00 4.88e+01  -3.8 2.07e+02    -  1.00e+00 2.50e-01f  3
 244  2.2853832e+03 0.00e+00 4.71e+00  -3.8 1.93e+01    -  1.00e+00 1.00e+00f  1
 245  2.2853832e+03 0.00e+00 3.25e+01  -3.8 1.68e+02    -  1.00e+00 2.50e-01f  3
 246  2.2853832e+03 0.00e+00 1.28e+01  -3.8 3.01e+01    -  1.00e+00 1.00e+00f  1
 247  2.2853832e+03 0.00e+00 2.74e+01  -3.8 7.43e+01    -  1.00e+00 5.00e-01f  2
 248  2.2853832e+03 0.00e+00 2.03e+01  -3.8 3.80e+01    -  1.00e+00 1.00e+00f  1
 249  2.2853833e+03 0.00e+00 3.93e+01  -3.8 5.24e+01    -  1.00e+00 1.00e+00f  1
iter    objective    inf_pr   inf_du lg(mu)  ||d||  lg(rg) alpha_du alpha_pr  ls
 250  2.2853832e+03 0.00e+00 1.12e+01  -3.8 3.00e+01    -  1.00e+00 1.00e+00f  1
 251  2.2853833e+03 0.00e+00 4.05e+01  -3.8 1.00e+02    -  1.00e+00 5.00e-01f  2
 252  2.2853832e+03 0.00e+00 1.20e+01  -3.8 3.17e+01    -  1.00e+00 1.00e+00f  1
 253  2.2853832e+03 0.00e+00 4.04e+01  -3.8 1.02e+02    -  1.00e+00 5.00e-01f  2
 254  2.2853832e+03 0.00e+00 1.37e+01  -3.8 3.45e+01    -  1.00e+00 1.00e+00f  1
 255  2.2853832e+03 0.00e+00 3.71e+01  -3.8 9.81e+01    -  1.00e+00 5.00e-01f  2
 256  2.2853832e+03 0.00e+00 1.84e+01  -3.8 4.03e+01    -  1.00e+00 1.00e+00f  1
 257  2.2853833e+03 0.00e+00 7.87e+01  -3.8 8.08e+01    -  1.00e+00 1.00e+00f  1
 258  2.2853832e+03 0.00e+00 4.20e+00  -3.8 2.28e+01    -  1.00e+00 1.00e+00f  1
 259  2.2853833e+03 0.00e+00 8.05e+01  -3.8 3.25e+02    -  1.00e+00 2.50e-01f  3
iter    objective    inf_pr   inf_du lg(mu)  ||d||  lg(rg) alpha_du alpha_pr  ls
 260  2.2853832e+03 0.00e+00 4.65e+00  -3.8 2.43e+01    -  1.00e+00 1.00e+00f  1
 261  2.2853833e+03 0.00e+00 7.62e+01  -3.8 3.24e+02    -  1.00e+00 2.50e-01f  3
 262  2.2853832e+03 0.00e+00 6.03e+00  -3.8 2.76e+01    -  1.00e+00 1.00e+00f  1
 263  2.2853833e+03 0.00e+00 5.67e+01  -3.8 2.82e+02    -  1.00e+00 2.50e-01f  3
 264  2.2853832e+03 0.00e+00 1.29e+01  -3.8 3.85e+01    -  1.00e+00 1.00e+00f  1
 265  2.2853833e+03 0.00e+00 6.69e+01  -3.8 1.56e+02    -  1.00e+00 5.00e-01f  2
 266  2.2853832e+03 0.00e+00 1.01e+01  -3.8 3.57e+01    -  1.00e+00 1.00e+00f  1
 267  2.2853832e+03 0.00e+00 3.34e+01  -3.8 2.09e+02    -  1.00e+00 2.50e-01f  3
 268  2.2853832e+03 0.00e+00 4.67e+01  -3.8 7.24e+01    -  1.00e+00 1.00e+00f  1
 269  2.2853832e+03 0.00e+00 2.49e+01  -3.8 5.49e+01    -  1.00e+00 1.00e+00f  1
iter    objective    inf_pr   inf_du lg(mu)  ||d||  lg(rg) alpha_du alpha_pr  ls
 270  2.2853833e+03 0.00e+00 9.11e+01  -3.8 1.02e+02    -  1.00e+00 1.00e+00f  1
 271  2.2853832e+03 0.00e+00 6.83e+00  -3.8 3.27e+01    -  1.00e+00 1.00e+00f  1
 272  2.2853833e+03 0.00e+00 6.93e+01  -3.8 3.49e+02    -  1.00e+00 2.50e-01f  3
 273  2.2853832e+03 0.00e+00 1.39e+01  -3.8 4.47e+01    -  1.00e+00 1.00e+00f  1
 274  2.2853833e+03 0.00e+00 8.85e+01  -3.8 2.02e+02    -  1.00e+00 5.00e-01f  2
 275  2.2853832e+03 0.00e+00 9.01e+00  -3.8 3.84e+01    -  1.00e+00 1.00e+00f  1
 276  2.2853832e+03 0.00e+00 5.38e+01  -3.8 3.13e+02    -  1.00e+00 2.50e-01f  3
 277  2.2853832e+03 0.00e+00 2.82e+01  -3.8 6.41e+01    -  1.00e+00 1.00e+00f  1
 278  2.2853833e+03 0.00e+00 1.04e+02  -3.8 1.20e+02    -  1.00e+00 1.00e+00f  1
 279  2.2853832e+03 0.00e+00 7.61e+00  -3.8 3.79e+01    -  1.00e+00 1.00e+00f  1
iter    objective    inf_pr   inf_du lg(mu)  ||d||  lg(rg) alpha_du alpha_pr  ls
 280  2.2853832e+03 0.00e+00 7.75e+01  -3.8 4.05e+02    -  1.00e+00 2.50e-01f  3
 281  2.2853832e+03 0.00e+00 1.58e+01  -3.8 5.22e+01    -  1.00e+00 1.00e+00f  1
 282  2.2853833e+03 0.00e+00 9.52e+01  -3.8 2.29e+02    -  1.00e+00 5.00e-01f  2
 283  2.2853832e+03 0.00e+00 1.09e+01  -3.8 4.58e+01    -  1.00e+00 1.00e+00f  1
 284  2.2853832e+03 0.00e+00 5.21e+01  -3.8 3.32e+02    -  1.00e+00 2.50e-01f  3
 285  2.2853832e+03 0.00e+00 4.06e+01  -3.8 8.34e+01    -  1.00e+00 1.00e+00f  1
 286  2.2853832e+03 0.00e+00 6.73e+01  -3.8 1.07e+02    -  1.00e+00 1.00e+00f  1
 287  2.2853832e+03 0.00e+00 2.54e+01  -3.8 6.89e+01    -  1.00e+00 1.00e+00f  1
 288  2.2853832e+03 0.00e+00 5.55e+01  -3.8 1.73e+02    -  1.00e+00 5.00e-01f  2
 289  2.2853832e+03 0.00e+00 3.93e+01  -3.8 8.58e+01    -  1.00e+00 1.00e+00f  1
iter    objective    inf_pr   inf_du lg(mu)  ||d||  lg(rg) alpha_du alpha_pr  ls
 290  2.2853832e+03 0.00e+00 7.84e+01  -3.8 1.20e+02    -  1.00e+00 1.00e+00f  1
 291  2.2853832e+03 0.00e+00 2.01e+01  -3.8 6.49e+01    -  1.00e+00 1.00e+00f  1
 292  2.2853832e+03 0.00e+00 7.90e+01  -3.8 2.28e+02    -  1.00e+00 5.00e-01f  2
 293  2.2853832e+03 0.00e+00 2.03e+01  -3.8 6.65e+01    -  1.00e+00 1.00e+00f  1
 294  2.2853832e+03 0.00e+00 7.83e+01  -3.8 2.31e+02    -  1.00e+00 5.00e-01f  2
 295  2.2853832e+03 0.00e+00 2.09e+01  -3.8 6.85e+01    -  1.00e+00 1.00e+00f  1
 296  2.2853832e+03 0.00e+00 7.47e+01  -3.8 2.29e+02    -  1.00e+00 5.00e-01f  2
 297  2.2853832e+03 0.00e+00 2.27e+01  -3.8 7.25e+01    -  1.00e+00 1.00e+00f  1
 298  2.2853832e+03 0.00e+00 6.51e+01  -3.8 2.14e+02    -  1.00e+00 5.00e-01f  2
 299  2.2853832e+03 0.00e+00 2.92e+01  -3.8 8.27e+01    -  1.00e+00 1.00e+00f  1
iter    objective    inf_pr   inf_du lg(mu)  ||d||  lg(rg) alpha_du alpha_pr  ls
 300  2.2853833e+03 0.00e+00 1.32e+02  -3.8 1.71e+02    -  1.00e+00 1.00e+00f  1
 301  2.2853832e+03 0.00e+00 6.08e+00  -3.8 4.35e+01    -  1.00e+00 1.00e+00f  1
 302  2.2853832e+03 0.00e+00 9.44e+01  -3.8 5.70e+02    -  1.00e+00 2.50e-01f  3
 303  2.2853832e+03 0.00e+00 1.19e+01  -3.8 5.75e+01    -  1.00e+00 1.00e+00f  1
 304  2.2853832e+03 0.00e+00 3.98e+01  -3.8 3.41e+02    -  1.00e+00 2.50e-01f  3
 305  2.2853832e+03 0.00e+00 6.02e+01  -3.8 1.22e+02    -  1.00e+00 1.00e+00f  1
 306  2.2853832e+03 0.00e+00 2.46e+01  -3.8 8.09e+01    -  1.00e+00 1.00e+00f  1
 307  2.2853832e+03 0.00e+00 4.23e+01  -3.8 1.75e+02    -  1.00e+00 5.00e-01f  2
 308  2.2853832e+03 0.00e+00 4.18e+01  -3.8 1.05e+02    -  1.00e+00 1.00e+00f  1
 309  2.2853832e+03 0.00e+00 3.79e+01  -3.8 1.01e+02    -  1.00e+00 1.00e+00f  1
iter    objective    inf_pr   inf_du lg(mu)  ||d||  lg(rg) alpha_du alpha_pr  ls
 310  2.2853832e+03 0.00e+00 4.00e+01  -3.8 1.05e+02    -  1.00e+00 1.00e+00f  1
 311  2.2853832e+03 0.00e+00 3.10e+01  -3.8 9.32e+01    -  1.00e+00 1.00e+00f  1
 312  2.2853832e+03 0.00e+00 4.17e+01  -3.8 1.08e+02    -  1.00e+00 1.00e+00f  1
 313  2.2853832e+03 0.00e+00 1.95e+01  -3.8 7.57e+01    -  1.00e+00 1.00e+00f  1
 314  2.2853832e+03 0.00e+00 6.00e+01  -3.8 1.31e+02    -  1.00e+00 1.00e+00f  1
 315  2.2853832e+03 0.00e+00 5.44e+00  -3.8 4.24e+01    -  1.00e+00 1.00e+00f  1
 316  2.2853832e+03 0.00e+00 4.76e+01  -3.8 2.27e+02    -  1.00e+00 5.00e-01f  2
 317  2.2853832e+03 0.00e+00 4.33e+00  -3.8 3.80e+01    -  1.00e+00 1.00e+00f  1
 318  2.2853832e+03 0.00e+00 2.77e+01  -3.8 1.73e+02    -  1.00e+00 5.00e-01f  2
 319  2.2853832e+03 0.00e+00 4.84e+00  -3.8 3.95e+01    -  1.00e+00 1.00e+00f  1
iter    objective    inf_pr   inf_du lg(mu)  ||d||  lg(rg) alpha_du alpha_pr  ls
 320  2.2853832e+03 0.00e+00 3.19e+01  -3.8 9.83e+01    -  1.00e+00 1.00e+00f  1
 321  2.2853832e+03 0.00e+00 4.74e-01  -3.8 1.36e+01    -  1.00e+00 1.00e+00f  1
 322  2.2853832e+03 0.00e+00 1.12e+01  -3.8 5.89e+01    -  1.00e+00 1.00e+00f  1
 323  2.2853832e+03 0.00e+00 4.96e-03  -3.8 1.78e+00    -  1.00e+00 1.00e+00f  1
 324  2.2853832e+03 0.00e+00 2.12e-02  -3.8 2.58e+00    -  1.00e+00 1.00e+00f  1
 325  2.2853832e+03 0.00e+00 4.27e-09  -3.8 2.02e-03    -  1.00e+00 1.00e+00f  1
 326  2.2853832e+03 0.00e+00 3.70e-04  -5.7 5.77e-01    -  1.00e+00 1.00e+00f  1
 327  2.2853832e+03 0.00e+00 2.03e-11  -5.7 1.77e-05    -  1.00e+00 1.00e+00f  1
 328  2.2853832e+03 0.00e+00 5.69e-08  -8.6 7.15e-03    -  1.00e+00 1.00e+00f  1
 329  2.2853832e+03 0.00e+00 8.53e-10  -8.6 5.07e-04    -  1.00e+00 1.00e+00f  1

Number of Iterations....: 329

                                   (scaled)                 (unscaled)
Objective...............:   1.5107046268379844e+02    2.2853832274296606e+03
Dual infeasibility......:   8.5269233186346764e-10    1.2899469021138085e-08
Constraint violation....:   0.0000000000000000e+00    0.0000000000000000e+00
Complementarity.........:   2.5059035597015581e-09    3.7909131031690478e-08
Overall NLP error.......:   2.5059035597015581e-09    3.7909131031690478e-08


Number of objective function evaluations             = 856
Number of objective gradient evaluations             = 330
Number of equality constraint evaluations            = 0
Number of inequality constraint evaluations          = 0
Number of equality constraint Jacobian evaluations   = 0
Number of inequality constraint Jacobian evaluations = 0
Number of Lagrangian Hessian evaluations             = 329
Total CPU secs in IPOPT (w/o function evaluations)   =      0.070
Total CPU secs in NLP function evaluations           =      0.010

EXIT: Optimal Solution Found.
Note: The following floating-point exceptions are signalling: IEEE_INVALID_FLAG IEEE_DIVIDE_BY_ZERO

 ** SUBROUTINE CUTEST_csetup: Warning. The problem has no general constraints. 
 ** Other tools may be preferable ** 

************************ CUTEst statistics ************************


 Package used            :  IPOPT
 Problem                 :  PALMER4   
 # variables             =               4
 # constraints           =               0
 # objective functions   =        0.1187000E+04
 # objective gradients   =        0.3310000E+03
 # objective Hessians    =        0.3300000E+03
 # Hessian-vector prdct  =        0.0000000E+00
 # constraints functions =        0.0000000E+00
 # constraints gradients =        0.0000000E+00
 # constraints Hessians  =        0.0000000E+00
 Exit code               =               0
 Final f                 =   0.2285383E+04
 Set up time             =            0.00 seconds
 Solve time              =            0.35 seconds


******************************************************************

System Time =       0.0960000008 s.
